(set-info :smt-lib-version 2.6)
(set-logic QF_S)
(set-info :source |
Generated by: Murphy Berzish, Mitja Kulczynski, Federico Mora, Florin Manea, Joel Day, Dirk Nowotka, Vijay Ganesh, Zhengyang Lu
Generated on: 2020-10-01
Description: Translated from a collection of real-world regex queries, AutomataArk, collected by Loris D’Antoni and Fang Wang: https://github.com/lorisdanto/automatark
Application: Evaluate solvers on real-world regex queries
Target solver: Z3str3RE, CVC4, OSTRICH, Z3seq, Z3str3, Z3-Trau
Publications: Berzish, M., Kulczynski, M., Mora, F., Manea, F., Day, J. D., Nowotka, D., & Ganesh, V. (2021, July). An SMT solver for regular expressions and linear arithmetic over string length. In CAV 2021.
|)
(set-info :license "https://creativecommons.org/licenses/by/4.0/")
(set-info :category "industrial")
(set-info :status sat)

(declare-const X String)
(assert (not (str.in_re X (re.++ (str.to_re "//?") ((_ re.loop 2 2) (re.union (re.range "a" "z") (re.range "0" "9"))) (str.to_re "=") ((_ re.loop 100 100) (re.union (re.range "a" "z") (re.range "1" "9"))) (str.to_re "/siU\u{a}")))))
(assert (not (str.in_re X (re.++ (str.to_re "/filename=") (re.* (re.comp (str.to_re "\u{a}"))) (str.to_re ".rmp/i\u{a}")))))
(assert (str.in_re X (re.union ((_ re.loop 20 20) (re.range "0" "9")) (re.++ (re.union ((_ re.loop 6 6) (re.++ (str.to_re ":") ((_ re.loop 1 4) (re.union (re.range "a" "f") (re.range "A" "F") (re.range "0" "9"))))) (str.to_re "::")) (str.to_re "ffff:") (re.union (re.++ (str.to_re "25") (re.range "0" "5")) (re.++ (str.to_re "2") (re.range "0" "4") (re.range "0" "9")) (re.++ (str.to_re "1") (re.range "0" "9") (re.range "0" "9")) ((_ re.loop 1 2) (re.range "0" "9"))) ((_ re.loop 3 3) (re.++ (str.to_re ".") (re.union (re.++ (str.to_re "25") (re.range "0" "5")) (re.++ (str.to_re "2") (re.range "0" "4") (re.range "0" "9")) (re.++ (str.to_re "1") (re.range "0" "9") (re.range "0" "9")) ((_ re.loop 1 2) (re.range "0" "9")))))) (re.++ (re.union ((_ re.loop 6 6) (re.++ (str.to_re ":") ((_ re.loop 1 4) (re.union (re.range "a" "f") (re.range "A" "F") (re.range "0" "9"))))) (str.to_re "::")) (str.to_re "ffff") ((_ re.loop 2 2) (re.++ (str.to_re ":") ((_ re.loop 1 4) (re.union (re.range "a" "f") (re.range "A" "F") (re.range "0" "9")))))) (re.++ ((_ re.loop 1 4) (re.union (re.range "a" "f") (re.range "A" "F") (re.range "0" "9"))) (str.to_re " ") ((_ re.loop 7 7) (re.++ (str.to_re ":") ((_ re.loop 1 4) (re.union (re.range "a" "f") (re.range "A" "F") (re.range "0" "9")))))) (re.++ (str.to_re ":") ((_ re.loop 1 6) (re.++ (str.to_re ":") ((_ re.loop 1 4) (re.union (re.range "a" "f") (re.range "A" "F") (re.range "0" "9"))) (re.opt (str.to_re "::"))))) (re.++ ((_ re.loop 1 6) (re.++ (re.opt (str.to_re "::")) ((_ re.loop 1 4) (re.union (re.range "a" "f") (re.range "A" "F") (re.range "0" "9"))) (str.to_re ":"))) (str.to_re ":")) (str.to_re "::\u{a}"))))
(assert (not (str.in_re X (re.++ (str.to_re "urn:") ((_ re.loop 1 1) (re.union (re.range "a" "z") (re.range "0" "9"))) ((_ re.loop 1 31) (re.union (re.range "a" "z") (re.range "0" "9") (str.to_re "-"))) (str.to_re ":") (re.+ (re.union (re.range "a" "z") (re.range "0" "9") (str.to_re "_") (str.to_re ",") (str.to_re ":") (str.to_re "=") (str.to_re "@") (str.to_re ";") (str.to_re "!") (str.to_re "'") (str.to_re "%") (str.to_re "/") (str.to_re "#") (str.to_re "(") (str.to_re ")") (str.to_re "+") (str.to_re "-") (str.to_re ".") (str.to_re "$") (str.to_re "*") (str.to_re "?"))) (str.to_re "\u{a}")))))
(assert (not (str.in_re X (re.++ (re.union (re.++ (str.to_re "19") (re.range "0" "9") (re.range "0" "9")) (re.++ (str.to_re "20") (re.range "0" "1") (re.range "0" "5"))) (str.to_re "-") (re.union (re.++ (re.opt (str.to_re "0")) (re.range "1" "9")) (re.++ (str.to_re "1") (re.range "0" "2"))) (str.to_re "-") (re.union (re.++ (re.opt (str.to_re "0")) (re.range "1" "9")) (re.++ (re.range "1" "2") (re.range "0" "9")) (re.++ (str.to_re "3") (re.range "0" "1"))) (str.to_re "\u{a}")))))
(check-sat)

(exit)
